proyfinal/src/viki/013/experimentInOfficeAgust.take6.output/a9fec016-ecbc-4a10-ac8f-5ee3f4effbf5.als.dat
{'cnf.clauses': '118081',
 'cnf.totvars': '69608',
 'conflict literals': '4',
 'conflicts': '4',
 'decisions': '3108',
 'memused.mb': '14.95',
 'outcome': 'UNSAT',
 'propagations': '25299',
 'restarts': '1',
 'solver.msecs': 28,
 'task.msecs': 85}
