proyfinal/src/viki/013/experimentInOfficeAgust.take6.output/a9fec016-ecbc-4a10-ac8f-5ee3f4effbf5.als.out
Reading from standard input... Use '--help' for help.
============================[ Problem Statistics ]=============================
|                                                                             |
|  Number of variables:         69608                                         |
|  Number of clauses:          118081                                         |
|  Parse time:                   0.02 s                                       |
|                                                                             |
============================[ Search Statistics ]==============================
| Conflicts |          ORIGINAL         |          LEARNT          | Progress |
|           |    Vars  Clauses Literals |    Limit  Clauses Lit/Cl |          |
===============================================================================
===============================================================================
restarts              : 1
conflicts             : 4              (138 /sec)
decisions             : 3108           (0.00 % random) (107476 /sec)
propagations          : 25299          (874853 /sec)
conflict literals     : 4              (0.00 % deleted)
Memory used           : 14.95 MB
CPU time              : 0.028918 s

UNSATISFIABLE
